* ENCODING=ISO-8859-1
NAME          CPLEX
ROWS
 N  obj1    
 G  c1      
 G  c2      
 G  c3      
 G  c4      
 G  c5      
 G  c6      
 G  c7      
 G  c8      
 G  c9      
 G  c10     
 G  c11     
 G  c12     
 G  c13     
 G  c14     
 G  c15     
 G  c16     
 G  c17     
 G  c18     
 G  c19     
 G  c20     
 G  c21     
 G  c22     
 G  c23     
 G  c24     
 G  c25     
 G  c26     
 G  c27     
 G  c28     
 G  c29     
 G  c30     
 G  c31     
 G  c32     
 G  c33     
 G  c34     
 G  c35     
 G  c36     
 G  c37     
 G  c38     
 G  c39     
 G  c40     
 G  c41     
 G  c42     
 G  c43     
 G  c44     
 G  c45     
 G  c46     
 G  c47     
 G  c48     
 G  c49     
 G  c50     
 G  c51     
 G  c52     
 G  c53     
 G  c54     
 G  c55     
 G  c56     
 G  c57     
 G  c58     
 G  c59     
 G  c60     
 G  c61     
 G  c62     
 G  c63     
 G  c64     
 G  c65     
 G  c66     
 G  c67     
 G  c68     
 G  c69     
 G  c70     
COLUMNS
    MARK0000  'MARKER'                 'INTORG'
    x1        obj1                            1
    x1        c11                           710
    x1        c12                           966
    x1        c15                           364
    x1        c25                           854
    x1        c29                           587
    x1        c38                           642
    x1        c47                           187
    x1        c51                           765
    x1        c57                           942
    x1        c58                           244
    x2        obj1                            1
    x2        c19                           993
    x2        c22                           314
    x2        c24                           405
    x2        c29                           503
    x2        c40                           594
    x2        c63                           214
    x3        obj1                            1
    x3        c6                            175
    x3        c11                           209
    x3        c13                           774
    x3        c18                           690
    x3        c30                           989
    x3        c47                           542
    x3        c50                           749
    x3        c59                           978
    x4        obj1                            1
    x4        c30                           460
    x4        c39                           428
    x4        c40                           732
    x4        c60                           547
    x4        c68                           550
    x5        obj1                            1
    x5        c13                           635
    x5        c17                           779
    x5        c30                           431
    x5        c31                           330
    x5        c45                           971
    x5        c50                           337
    x5        c57                           863
    x5        c58                           476
    x6        obj1                            1
    x6        c4                            211
    x6        c13                           105
    x6        c15                           992
    x6        c23                           929
    x6        c26                           199
    x6        c40                           300
    x6        c41                           735
    x6        c44                           391
    x6        c45                           537
    x6        c50                           683
    x6        c56                           437
    x6        c70                           822
    x7        obj1                            1
    x7        c3                            372
    x7        c7                            825
    x7        c8                            972
    x7        c22                           848
    x7        c24                           592
    x7        c26                           926
    x7        c37                           336
    x7        c47                           955
    x7        c49                           867
    x7        c53                           978
    x7        c55                           450
    x7        c69                           794
    x8        obj1                            1
    x8        c16                           717
    x8        c18                           844
    x8        c22                           541
    x8        c28                           384
    x8        c30                           841
    x8        c43                           957
    x8        c45                           255
    x9        obj1                            1
    x9        c2                            926
    x9        c17                           161
    x9        c18                           213
    x9        c31                           165
    x9        c39                           723
    x9        c53                           684
    x10       obj1                            1
    x10       c2                            787
    x10       c12                           897
    x10       c19                           284
    x10       c34                           817
    x10       c66                           837
    x11       obj1                            1
    x11       c13                           573
    x11       c14                           526
    x11       c24                           568
    x11       c33                           406
    x11       c36                           954
    x11       c44                           534
    x11       c62                           384
    x12       obj1                            1
    x12       c13                           386
    x12       c40                           529
    x12       c42                           347
    x13       obj1                            1
    x13       c2                            169
    x13       c6                            590
    x13       c46                           943
    x13       c47                           386
    x13       c50                           377
    x13       c51                           365
    x13       c54                           637
    x14       obj1                            1
    x14       c4                            853
    x14       c10                           116
    x14       c14                           427
    x14       c34                           168
    x14       c38                           215
    x14       c39                           997
    x14       c41                           101
    x14       c49                           984
    x14       c50                           781
    x14       c55                           193
    x15       obj1                            1
    x15       c3                            808
    x15       c5                            440
    x15       c14                           849
    x15       c15                           950
    x15       c31                           954
    x16       obj1                            1
    x16       c19                           227
    x16       c55                           439
    x16       c58                           873
    x16       c59                           827
    x16       c64                           288
    x16       c66                           678
    x17       obj1                            1
    x17       c9                            204
    x17       c11                           435
    x17       c22                           615
    x17       c26                           423
    x17       c39                           701
    x17       c46                           886
    x18       obj1                            1
    x18       c3                            717
    x18       c5                            891
    x18       c7                            483
    x18       c21                           484
    x18       c25                           261
    x18       c28                           768
    x18       c29                           706
    x18       c46                           395
    x18       c54                           534
    x18       c59                           942
    x18       c67                           218
    x18       c68                           879
    x18       c70                           525
    x19       obj1                            1
    x19       c34                           934
    x19       c40                           262
    x19       c43                           402
    x19       c45                           730
    x19       c54                           446
    x19       c55                           642
    x19       c56                           986
    x19       c60                           612
    x19       c65                           776
    x20       obj1                            1
    x20       c47                           265
    x20       c50                           736
    x20       c66                           917
    x20       c68                           111
    x21       obj1                            1
    x21       c8                            904
    x21       c17                           102
    x21       c20                           931
    x21       c37                           353
    x21       c62                           485
    x21       c63                           742
    x21       c64                           932
    x22       obj1                            1
    x22       c10                           373
    x22       c27                           824
    x22       c41                           726
    x23       obj1                            1
    x23       c16                           380
    x23       c17                           920
    x23       c27                           350
    x23       c29                           129
    x23       c44                           516
    x23       c60                           516
    x23       c63                           451
    x24       obj1                            1
    x24       c14                           808
    x24       c17                           720
    x24       c37                           233
    x24       c39                           448
    x24       c50                           723
    x24       c57                           955
    x25       obj1                            1
    x25       c1                            510
    x25       c11                           904
    x25       c13                           979
    x25       c20                           203
    x25       c33                           237
    x25       c38                           113
    x25       c41                           211
    x25       c42                           741
    x25       c46                           198
    x25       c64                           672
    x26       obj1                            1
    x26       c3                            118
    x26       c28                           369
    x26       c35                           923
    x26       c36                           551
    x26       c58                           785
    x26       c63                           619
    x26       c69                           734
    x27       obj1                            1
    x27       c1                            685
    x27       c5                            616
    x27       c6                            362
    x27       c7                            854
    x27       c10                           665
    x27       c15                           737
    x27       c17                           156
    x27       c20                           780
    x27       c42                           845
    x27       c65                           640
    x27       c69                           692
    x28       obj1                            1
    x28       c8                            335
    x28       c16                           364
    x28       c28                           548
    x28       c30                           695
    x28       c42                           860
    x29       obj1                            1
    x29       c2                            594
    x29       c11                           448
    x29       c49                           623
    x29       c51                           217
    x29       c60                           467
    x29       c67                           483
    x30       obj1                            1
    x30       c1                            243
    x30       c23                           662
    x30       c29                           561
    x30       c31                           326
    x30       c55                           605
    x31       obj1                            1
    x31       c8                            103
    x31       c9                            789
    x31       c13                           994
    x31       c16                           715
    x31       c24                           208
    x31       c30                           862
    x31       c34                           813
    x31       c38                           694
    x31       c39                           642
    x31       c56                           410
    x32       obj1                            1
    x32       c5                            937
    x32       c11                           885
    x32       c18                           100
    x32       c45                           507
    x32       c48                           638
    x32       c59                           294
    x33       obj1                            1
    x33       c1                            428
    x33       c4                            431
    x33       c10                           181
    x33       c11                           153
    x33       c14                           942
    x33       c31                           711
    x33       c57                           957
    x33       c58                           622
    x34       obj1                            1
    x34       c4                            702
    x34       c9                            436
    x34       c26                           648
    x34       c34                           300
    x34       c37                           121
    x34       c56                           868
    x35       obj1                            1
    x35       c12                           619
    x35       c16                           611
    x35       c25                           548
    x35       c31                           490
    x35       c47                           514
    x35       c51                           785
    x35       c60                           334
    x35       c65                           195
    x36       obj1                            1
    x36       c18                           242
    x36       c21                           751
    x36       c22                           216
    x36       c23                           196
    x36       c33                           201
    x36       c35                           671
    x36       c46                           858
    x36       c51                           783
    x36       c58                           762
    x36       c59                           860
    x37       obj1                            1
    x37       c10                           341
    x37       c22                           554
    x37       c25                           221
    x37       c40                           817
    x37       c42                           266
    x37       c46                           575
    x37       c47                           216
    x37       c50                           549
    x37       c51                           754
    x37       c61                           472
    x37       c62                           330
    x37       c69                           604
    x38       obj1                            1
    x38       c19                           797
    x38       c21                           354
    x38       c31                           803
    x38       c38                           182
    x38       c39                           846
    x38       c41                           327
    x38       c42                           733
    x38       c54                           801
    x38       c57                           515
    x38       c62                           481
    x38       c68                           170
    x39       obj1                            1
    x39       c14                           484
    x39       c15                           848
    x39       c18                           501
    x39       c21                           844
    x39       c33                           804
    x39       c35                           809
    x39       c41                           679
    x39       c55                           880
    x39       c64                           449
    x39       c70                           147
    x40       obj1                            1
    x40       c8                            402
    x40       c32                           982
    x40       c35                           676
    x40       c52                           319
    x40       c55                           912
    x40       c56                           645
    x40       c60                           939
    x40       c65                           102
    x40       c66                           857
    x40       c67                           772
    x41       obj1                            1
    x41       c15                           533
    x41       c16                           203
    x41       c18                           471
    x41       c20                           827
    x41       c26                           895
    x41       c27                           713
    x41       c70                           537
    x42       obj1                            1
    x42       c18                           388
    x42       c32                           708
    x42       c47                           419
    x42       c48                           262
    x42       c52                           488
    x42       c55                           763
    x42       c56                           858
    x42       c67                           911
    x43       obj1                            1
    x43       c1                            620
    x43       c4                            788
    x43       c8                            262
    x43       c48                           264
    x43       c54                           943
    x43       c60                           120
    x43       c62                           342
    x43       c69                           984
    x44       obj1                            1
    x44       c8                            621
    x44       c24                           383
    x44       c34                           553
    x44       c42                           875
    x44       c54                           557
    x44       c58                           457
    x44       c59                           390
    x44       c61                           909
    x44       c67                           581
    x45       obj1                            1
    x45       c10                           266
    x45       c13                           842
    x45       c66                           608
    x46       obj1                            1
    x46       c4                            763
    x46       c8                            870
    x46       c22                           882
    x46       c34                           156
    x46       c46                           256
    x47       obj1                            1
    x47       c5                            389
    x47       c51                           736
    x47       c52                           845
    x47       c66                           436
    x48       obj1                            1
    x48       c12                           547
    x48       c23                           249
    x48       c28                           154
    x48       c29                           614
    x48       c38                           617
    x48       c56                           249
    x48       c60                           236
    x49       obj1                            1
    x49       c4                            772
    x49       c11                           624
    x49       c16                           528
    x49       c21                           920
    x49       c24                           998
    x49       c28                           425
    x49       c40                           262
    x49       c69                           509
    x50       obj1                            1
    x50       c8                            849
    x50       c11                           525
    x50       c21                           975
    x50       c28                           885
    x50       c33                           337
    x50       c34                           917
    x50       c43                           522
    x50       c46                           720
    x50       c61                           599
    x50       c63                           462
    x51       obj1                            1
    x51       c7                            284
    x51       c15                           671
    x51       c23                           905
    x51       c51                           918
    x51       c66                           154
    x52       obj1                            1
    x52       c2                            265
    x52       c15                           936
    x52       c17                           943
    x52       c42                           992
    x52       c46                           972
    x52       c52                           796
    x52       c57                           420
    x52       c66                           162
    x52       c69                           820
    x52       c70                           689
    x53       obj1                            1
    x53       c13                           745
    x53       c16                           982
    x53       c24                           799
    x53       c36                           456
    x53       c44                           336
    x53       c45                           913
    x54       obj1                            1
    x54       c5                            189
    x54       c29                           615
    x54       c30                           693
    x54       c33                           206
    x54       c44                           378
    x54       c56                           119
    x54       c61                           431
    x55       obj1                            1
    x55       c11                           808
    x55       c21                           457
    x55       c42                           557
    x55       c46                           461
    x55       c65                           179
    x55       c66                           877
    x56       obj1                            1
    x56       c1                            581
    x56       c3                            381
    x56       c15                           135
    x56       c17                           125
    x56       c20                           496
    x56       c39                           989
    x56       c42                           863
    x56       c47                           978
    x56       c54                           770
    x56       c62                           580
    x56       c65                           969
    x57       obj1                            1
    x57       c17                           583
    x57       c21                           328
    x57       c34                           137
    x57       c49                           752
    x58       obj1                            1
    x58       c1                            305
    x58       c8                            419
    x58       c12                           162
    x58       c22                           993
    x58       c25                           966
    x58       c28                           646
    x58       c51                           988
    x58       c64                           625
    x59       obj1                            1
    x59       c16                           404
    x59       c18                           359
    x59       c20                           723
    x59       c33                           684
    x59       c63                           308
    x60       obj1                            1
    x60       c13                           466
    x60       c14                           335
    x60       c23                           236
    x60       c25                           381
    x61       obj1                            1
    x61       c5                            133
    x61       c18                           370
    x61       c26                           993
    x61       c32                           725
    x61       c44                           730
    x61       c61                           992
    x61       c64                           709
    x62       obj1                            1
    x62       c3                            606
    x62       c9                            160
    x62       c14                           448
    x62       c15                           685
    x62       c28                           152
    x62       c29                           864
    x62       c32                           629
    x62       c37                           161
    x63       obj1                            1
    x63       c23                           321
    x63       c36                           850
    x63       c45                           408
    x63       c48                           970
    x63       c63                           378
    x63       c65                           912
    x64       obj1                            1
    x64       c1                            767
    x64       c20                           282
    x64       c27                           928
    x64       c53                           317
    x64       c55                           505
    x65       obj1                            1
    x65       c22                           656
    x65       c23                           322
    x65       c24                           945
    x65       c44                           780
    x65       c70                           688
    x66       obj1                            1
    x66       c23                           570
    x66       c34                           217
    x66       c44                           697
    x66       c55                           670
    x67       obj1                            1
    x67       c14                           775
    x67       c28                           491
    x67       c38                           138
    x67       c39                           932
    x67       c45                           957
    x67       c61                           455
    x68       obj1                            1
    x68       c7                            234
    x68       c43                           979
    x68       c49                           757
    x68       c51                           582
    x68       c60                           206
    x68       c64                           868
    x68       c68                           104
    x69       obj1                            1
    x69       c5                            337
    x69       c6                            758
    x69       c9                            809
    x69       c31                           192
    x69       c39                           115
    x69       c43                           922
    x70       obj1                            1
    x70       c5                            744
    x70       c17                           689
    x70       c23                           125
    x70       c38                           821
    x70       c53                           531
    MARK0001  'MARKER'                 'INTEND'
RHS
    rhs       c1                           2070
    rhs       c2                           1371
    rhs       c3                           1501
    rhs       c4                           2260
    rhs       c5                           2338
    rhs       c6                            943
    rhs       c7                           1340
    rhs       c8                           2869
    rhs       c9                           1199
    rhs       c10                           971
    rhs       c11                          2851
    rhs       c12                          1596
    rhs       c13                          3250
    rhs       c14                          2797
    rhs       c15                          3426
    rhs       c16                          2452
    rhs       c17                          2589
    rhs       c18                          2089
    rhs       c19                          1151
    rhs       c20                          2121
    rhs       c21                          2557
    rhs       c22                          2810
    rhs       c23                          2258
    rhs       c24                          2449
    rhs       c25                          1616
    rhs       c26                          2042
    rhs       c27                          1408
    rhs       c28                          2411
    rhs       c29                          2290
    rhs       c30                          2486
    rhs       c31                          1986
    rhs       c32                          1522
    rhs       c33                          1438
    rhs       c34                          2506
    rhs       c35                          1540
    rhs       c36                          1406
    rhs       c37                           602
    rhs       c38                          1711
    rhs       c39                          3411
    rhs       c40                          1748
    rhs       c41                          1390
    rhs       c42                          3540
    rhs       c43                          1891
    rhs       c44                          2181
    rhs       c45                          2639
    rhs       c46                          3132
    rhs       c47                          2231
    rhs       c48                          1067
    rhs       c49                          1992
    rhs       c50                          2468
    rhs       c51                          3447
    rhs       c52                          1224
    rhs       c53                          1255
    rhs       c54                          2344
    rhs       c55                          3030
    rhs       c56                          2286
    rhs       c57                          2326
    rhs       c58                          2110
    rhs       c59                          2146
    rhs       c60                          1989
    rhs       c61                          1929
    rhs       c62                          1301
    rhs       c63                          1587
    rhs       c64                          2272
    rhs       c65                          1887
    rhs       c66                          2763
    rhs       c67                          1483
    rhs       c68                           907
    rhs       c69                          2569
    rhs       c70                          1704
BOUNDS
 LI bnd       x1        0
 LI bnd       x2        0
 LI bnd       x3        0
 LI bnd       x4        0
 LI bnd       x5        0
 LI bnd       x6        0
 LI bnd       x7        0
 LI bnd       x8        0
 LI bnd       x9        0
 LI bnd       x10       0
 LI bnd       x11       0
 LI bnd       x12       0
 LI bnd       x13       0
 LI bnd       x14       0
 LI bnd       x15       0
 LI bnd       x16       0
 LI bnd       x17       0
 LI bnd       x18       0
 LI bnd       x19       0
 LI bnd       x20       0
 LI bnd       x21       0
 LI bnd       x22       0
 LI bnd       x23       0
 LI bnd       x24       0
 LI bnd       x25       0
 LI bnd       x26       0
 LI bnd       x27       0
 LI bnd       x28       0
 LI bnd       x29       0
 LI bnd       x30       0
 LI bnd       x31       0
 LI bnd       x32       0
 LI bnd       x33       0
 LI bnd       x34       0
 LI bnd       x35       0
 LI bnd       x36       0
 LI bnd       x37       0
 LI bnd       x38       0
 LI bnd       x39       0
 LI bnd       x40       0
 LI bnd       x41       0
 LI bnd       x42       0
 LI bnd       x43       0
 LI bnd       x44       0
 LI bnd       x45       0
 LI bnd       x46       0
 LI bnd       x47       0
 LI bnd       x48       0
 LI bnd       x49       0
 LI bnd       x50       0
 LI bnd       x51       0
 LI bnd       x52       0
 LI bnd       x53       0
 LI bnd       x54       0
 LI bnd       x55       0
 LI bnd       x56       0
 LI bnd       x57       0
 LI bnd       x58       0
 LI bnd       x59       0
 LI bnd       x60       0
 LI bnd       x61       0
 LI bnd       x62       0
 LI bnd       x63       0
 LI bnd       x64       0
 LI bnd       x65       0
 LI bnd       x66       0
 LI bnd       x67       0
 LI bnd       x68       0
 LI bnd       x69       0
 LI bnd       x70       0
ENDATA
